rikudo = [
    _,31,_,_,
    _,_,27,_,_,
    _,_,_,_,8,_,
    _,_,24,_,_,_,
    36,_,_,_,_,4,
    _,18,16,12,1,
    _,_,_,_
];

links_size = 4;
links = array2d(1..links_size,1..2,
   [9,15,
   13, 19,
   28,23,
   34,35
   ]
);